min: c;

c = 3.04092795249486 * u5_t4_h2 + 3.04092795249486 * u5_t7_h2 + 3.65342290669847 * u5_t4_h3 + 3.65342290669847 * u5_t7_h3 + 3.34423400070498 * u5_t1_h4 + 3.34423400070498 * u5_t3_h4 + 3.34423400070498 * u5_t4_h4 + 3.34423400070498 * u5_t7_h4 + 3.1630243970635 * u5_t1_h5 + 3.1630243970635 * u5_t3_h5 + 3.1630243970635 * u5_t4_h5 + 3.1630243970635 * u5_t7_h5 + 3.83425525963864 * u5_t1_h6 + 3.83425525963864 * u5_t3_h6 + 3.83425525963864 * u5_t4_h6 + 3.83425525963864 * u5_t6_h6 + 3.83425525963864 * u5_t7_h6 + 4.11381296415122 * u5_t1_h7 + 4.11381296415122 * u5_t3_h7 + 4.11381296415122 * u5_t4_h7 + 4.11381296415122 * u5_t6_h7 + 5.61066458689976 * u5_t1_h8 + 5.61066458689976 * u5_t3_h8 + 5.61066458689976 * u5_t4_h8 + 5.61066458689976 * u5_t6_h8 + 4.77474062053618 * u5_t1_h9 + 4.77474062053618 * u5_t3_h9 + 4.77474062053618 * u5_t4_h9 + 4.77474062053618 * u5_t6_h9 + 5.6526758435808 * u5_t1_h10 + 5.6526758435808 * u5_t3_h10 + 5.6526758435808 * u5_t4_h10 + 5.6526758435808 * u5_t6_h10 + 3.7617791679847 * u5_t1_h11 + 3.7617791679847 * u5_t3_h11 + 3.7617791679847 * u5_t4_h11 + 3.7617791679847 * u5_t6_h11 + 5.82696521322066 * u5_t1_h12 + 5.82696521322066 * u5_t3_h12 + 5.82696521322066 * u5_t4_h12 + 5.82696521322066 * u5_t6_h12 + 4.92349984258871 * u5_t1_h13 + 4.92349984258871 * u5_t3_h13 + 4.92349984258871 * u5_t4_h13 + 4.92349984258871 * u5_t6_h13 + 4.92349984258871 * u5_t8_h13 + 5.42736701362619 * u5_t1_h14 + 5.42736701362619 * u5_t3_h14 + 5.42736701362619 * u5_t4_h14 + 5.42736701362619 * u5_t6_h14 + 5.42736701362619 * u5_t8_h14 + 6.54904951238883 * u5_t1_h15 + 6.54904951238883 * u5_t3_h15 + 6.54904951238883 * u5_t4_h15 + 6.54904951238883 * u5_t6_h15 + 6.54904951238883 * u5_t8_h15 + 6.54904951238883 * u5_t9_h15 + 6.13122237037533 * u5_t1_h16 + 6.13122237037533 * u5_t3_h16 + 6.13122237037533 * u5_t4_h16 + 6.13122237037533 * u5_t5_h16 + 6.13122237037533 * u5_t6_h16 + 6.13122237037533 * u5_t8_h16 + 6.13122237037533 * u5_t9_h16 + 5.90834968696809 * u5_t1_h17 + 5.90834968696809 * u5_t5_h17 + 5.90834968696809 * u5_t6_h17 + 5.90834968696809 * u5_t8_h17 + 5.90834968696809 * u5_t9_h17 + 5.90834968696809 * u5_t10_h17 + 6.52981939588579 * u5_t1_h18 + 6.52981939588579 * u5_t2_h18 + 6.52981939588579 * u5_t5_h18 + 6.52981939588579 * u5_t6_h18 + 6.52981939588579 * u5_t9_h18 + 6.52981939588579 * u5_t10_h18 + 5.09663362786039 * u5_t1_h19 + 5.09663362786039 * u5_t2_h19 + 5.09663362786039 * u5_t5_h19 + 5.09663362786039 * u5_t9_h19 + 5.09663362786039 * u5_t10_h19 + 5.29499820849339 * u5_t1_h20 + 5.29499820849339 * u5_t2_h20 + 5.29499820849339 * u5_t5_h20 + 5.29499820849339 * u5_t9_h20 + 5.29499820849339 * u5_t10_h20 + 5.19955997379004 * u5_t2_h21 + 5.19955997379004 * u5_t5_h21 + 5.19955997379004 * u5_t9_h21 + 5.19955997379004 * u5_t10_h21 + 5.3173790727871 * u5_t2_h22 + 5.3173790727871 * u5_t5_h22 + 5.3173790727871 * u5_t9_h22 + 5.3173790727871 * u5_t10_h22 + 5.74339900671985 * u5_t5_h23 + 5.74339900671985 * u5_t9_h23 + 5.74339900671985 * u5_t10_h23;
0 <= u5_t1_h4 <= 1;
0 <= u5_t1_h5 <= 1;
0 <= u5_t1_h6 <= 1;
0 <= u5_t1_h7 <= 1;
0 <= u5_t1_h8 <= 1;
0 <= u5_t1_h9 <= 1;
0 <= u5_t1_h10 <= 1;
0 <= u5_t1_h11 <= 1;
0 <= u5_t1_h12 <= 1;
0 <= u5_t1_h13 <= 1;
0 <= u5_t1_h14 <= 1;
0 <= u5_t1_h15 <= 1;
0 <= u5_t1_h16 <= 1;
0 <= u5_t1_h17 <= 1;
0 <= u5_t1_h18 <= 1;
0 <= u5_t1_h19 <= 1;
0 <= u5_t1_h20 <= 1;
u5_t1_h4 + u5_t1_h5 + u5_t1_h6 + u5_t1_h7 + u5_t1_h8 + u5_t1_h9 + u5_t1_h10 + u5_t1_h11 + u5_t1_h12 + u5_t1_h13 + u5_t1_h14 + u5_t1_h15 + u5_t1_h16 + u5_t1_h17 + u5_t1_h18 + u5_t1_h19 + u5_t1_h20 = 1;
0 <= u5_t2_h18 <= 1;
0 <= u5_t2_h19 <= 1;
0 <= u5_t2_h20 <= 1;
0 <= u5_t2_h21 <= 1;
0 <= u5_t2_h22 <= 1;
u5_t2_h18 + u5_t2_h19 + u5_t2_h20 + u5_t2_h21 + u5_t2_h22 = 3;
0 <= u5_t3_h4 <= 1;
0 <= u5_t3_h5 <= 1;
0 <= u5_t3_h6 <= 1;
0 <= u5_t3_h7 <= 1;
0 <= u5_t3_h8 <= 1;
0 <= u5_t3_h9 <= 1;
0 <= u5_t3_h10 <= 1;
0 <= u5_t3_h11 <= 1;
0 <= u5_t3_h12 <= 1;
0 <= u5_t3_h13 <= 1;
0 <= u5_t3_h14 <= 1;
0 <= u5_t3_h15 <= 1;
0 <= u5_t3_h16 <= 1;
u5_t3_h4 + u5_t3_h5 + u5_t3_h6 + u5_t3_h7 + u5_t3_h8 + u5_t3_h9 + u5_t3_h10 + u5_t3_h11 + u5_t3_h12 + u5_t3_h13 + u5_t3_h14 + u5_t3_h15 + u5_t3_h16 = 1;
0 <= u5_t4_h2 <= 1;
0 <= u5_t4_h3 <= 1;
0 <= u5_t4_h4 <= 1;
0 <= u5_t4_h5 <= 1;
0 <= u5_t4_h6 <= 1;
0 <= u5_t4_h7 <= 1;
0 <= u5_t4_h8 <= 1;
0 <= u5_t4_h9 <= 1;
0 <= u5_t4_h10 <= 1;
0 <= u5_t4_h11 <= 1;
0 <= u5_t4_h12 <= 1;
0 <= u5_t4_h13 <= 1;
0 <= u5_t4_h14 <= 1;
0 <= u5_t4_h15 <= 1;
0 <= u5_t4_h16 <= 1;
u5_t4_h2 + u5_t4_h3 + u5_t4_h4 + u5_t4_h5 + u5_t4_h6 + u5_t4_h7 + u5_t4_h8 + u5_t4_h9 + u5_t4_h10 + u5_t4_h11 + u5_t4_h12 + u5_t4_h13 + u5_t4_h14 + u5_t4_h15 + u5_t4_h16 = 3;
0 <= u5_t5_h16 <= 1;
0 <= u5_t5_h17 <= 1;
0 <= u5_t5_h18 <= 1;
0 <= u5_t5_h19 <= 1;
0 <= u5_t5_h20 <= 1;
0 <= u5_t5_h21 <= 1;
0 <= u5_t5_h22 <= 1;
0 <= u5_t5_h23 <= 1;
u5_t5_h16 + u5_t5_h17 + u5_t5_h18 + u5_t5_h19 + u5_t5_h20 + u5_t5_h21 + u5_t5_h22 + u5_t5_h23 = 2;
0 <= u5_t6_h6 <= 1;
0 <= u5_t6_h7 <= 1;
0 <= u5_t6_h8 <= 1;
0 <= u5_t6_h9 <= 1;
0 <= u5_t6_h10 <= 1;
0 <= u5_t6_h11 <= 1;
0 <= u5_t6_h12 <= 1;
0 <= u5_t6_h13 <= 1;
0 <= u5_t6_h14 <= 1;
0 <= u5_t6_h15 <= 1;
0 <= u5_t6_h16 <= 1;
0 <= u5_t6_h17 <= 1;
0 <= u5_t6_h18 <= 1;
u5_t6_h6 + u5_t6_h7 + u5_t6_h8 + u5_t6_h9 + u5_t6_h10 + u5_t6_h11 + u5_t6_h12 + u5_t6_h13 + u5_t6_h14 + u5_t6_h15 + u5_t6_h16 + u5_t6_h17 + u5_t6_h18 = 2;
0 <= u5_t7_h2 <= 1;
0 <= u5_t7_h3 <= 1;
0 <= u5_t7_h4 <= 1;
0 <= u5_t7_h5 <= 1;
0 <= u5_t7_h6 <= 1;
u5_t7_h2 + u5_t7_h3 + u5_t7_h4 + u5_t7_h5 + u5_t7_h6 = 1;
0 <= u5_t8_h13 <= 1;
0 <= u5_t8_h14 <= 1;
0 <= u5_t8_h15 <= 1;
0 <= u5_t8_h16 <= 1;
0 <= u5_t8_h17 <= 1;
u5_t8_h13 + u5_t8_h14 + u5_t8_h15 + u5_t8_h16 + u5_t8_h17 = 3;
0 <= u5_t9_h15 <= 1;
0 <= u5_t9_h16 <= 1;
0 <= u5_t9_h17 <= 1;
0 <= u5_t9_h18 <= 1;
0 <= u5_t9_h19 <= 1;
0 <= u5_t9_h20 <= 1;
0 <= u5_t9_h21 <= 1;
0 <= u5_t9_h22 <= 1;
0 <= u5_t9_h23 <= 1;
u5_t9_h15 + u5_t9_h16 + u5_t9_h17 + u5_t9_h18 + u5_t9_h19 + u5_t9_h20 + u5_t9_h21 + u5_t9_h22 + u5_t9_h23 = 1;
0 <= u5_t10_h17 <= 1;
0 <= u5_t10_h18 <= 1;
0 <= u5_t10_h19 <= 1;
0 <= u5_t10_h20 <= 1;
0 <= u5_t10_h21 <= 1;
0 <= u5_t10_h22 <= 1;
0 <= u5_t10_h23 <= 1;
u5_t10_h17 + u5_t10_h18 + u5_t10_h19 + u5_t10_h20 + u5_t10_h21 + u5_t10_h22 + u5_t10_h23 = 1;
